$ This puzzle obtained from: https://teachinglondoncomputing.org/cut-hive-puzzles/

language ESSENCE' 1.0

letting height be 5
letting length be 5
letting numblocks be 5

letting blocks be 
[
    [0,0,3,0,0],
    [0,1,4,0,0],
    [0,1,2,4,0],
    [1,2,2,5,0],
    [0,2,2,0,5],
]

letting fixed be
[
    [0,0,0,0,0],
    [0,0,0,0,0],
    [0,0,0,0,0],
    [1,0,5,0,0],
    [0,0,0,0,0],
]